\ENCODING=ISO-8859-1
\Problem name: ilog.cplex

Minimize
 obj1: 106592 x1 + 103227 x2 + 98844 x3 + 100881 x4 + 92294 x5 + 98420 x6
       + 99132 x7 + 90154 x8 + 98275 x9 + 101863 x10 + 104050 x11 + 103672 x12
       + 93498 x13 + 106278 x14 + 99680 x15 + 94145 x16 + 101619 x17
       + 99327 x18 + 105487 x19 + 108736 x20 + 104243 x21 + 94481 x22
       + 95019 x23 + 105709 x24 + 103684 x25 + 105293 x26 + 105713 x27
       + 105709 x28 + 90847 x29 + 95323 x30 + 108253 x31 + 104564 x32
       + 108723 x33 + 96621 x34 + 103648 x35 + 100425 x36 + 97474 x37
       + 105915 x38 + 94499 x39 + 99659 x40 + 93200 x41 + 99584 x42 + 95803 x43
       + 103112 x44 + 109212 x45 + 95987 x46 + 90270 x47 + 97186 x48
       + 96013 x49 + 96869 x50 + 98341 x51 + 92967 x52 + 108120 x53
       + 102754 x54 + 96330 x55 + 94134 x56 + 95048 x57 + 105777 x58
       + 101386 x59 + 93061 x60 + 106006 x61 + 107832 x62 + 103426 x63
       + 97601 x64 + 99489 x65 + 92029 x66 + 108216 x67 + 106531 x68
       + 90668 x69 + 103279 x70 + 104309 x71 + 107901 x72 + 99895 x73
       + 102325 x74 + 91694 x75 + 100160 x76 + 98578 x77 + 108085 x78
       + 91506 x79 + 105070 x80 + 95473 x81 + 108899 x82 + 99979 x83
       + 107233 x84 + 105552 x85 + 96874 x86 + 109158 x87 + 101457 x88
       + 108282 x89 + 103776 x90 + 91959 x91 + 96256 x92 + 92511 x93
       + 91756 x94 + 99763 x95 + 109467 x96 + 101093 x97 + 97712 x98
       + 107042 x99 + 100230 x100 + 90538 x101 + 103712 x102 + 92422 x103
       + 98751 x104 + 99100 x105 + 102051 x106 + 94639 x107 + 93211 x108
       + 100435 x109 + 90999 x110 + 102430 x111 + 106594 x112 + 92923 x113
       + 95491 x114 + 106978 x115 + 108640 x116 + 90950 x117 + 100760 x118
       + 107872 x119 + 105634 x120 + 108360 x121 + 104731 x122 + 91267 x123
       + 107465 x124 + 93070 x125 + 104730 x126 + 104565 x127 + 98243 x128
       + 106045 x129 + 108394 x130 + 93931 x131 + 104492 x132 + 91703 x133
       + 90850 x134 + 102695 x135 + 97470 x136 + 101434 x137 + 98110 x138
       + 91047 x139 + 104317 x140 + 107035 x141 + 100029 x142 + 90425 x143
       + 96482 x144 + 96695 x145 + 105293 x146 + 109609 x147 + 93294 x148
       + 102597 x149 + 105610 x150 + 96585 x151 + 102595 x152 + 108630 x153
       + 105122 x154 + 108736 x155 + 109066 x156 + 106982 x157 + 103332 x158
       + 93691 x159 + 106657 x160 + 91562 x161 + 106266 x162 + 107807 x163
       + 109340 x164 + 99544 x165 + 100811 x166 + 98278 x167 + 96274 x168
       + 96573 x169 + 101274 x170 + 105263 x171 + 90945 x172 + 96713 x173
       + 102718 x174 + 107666 x175 + 93188 x176 + 93598 x177 + 104672 x178
       + 99856 x179 + 91756 x180 + 108308 x181 + 90204 x182 + 92005 x183
       + 94943 x184 + 105170 x185 + 108054 x186 + 97645 x187 + 97273 x188
       + 107901 x189 + 108813 x190 + 108630 x191 + 91382 x192 + 105465 x193
       + 90054 x194 + 99908 x195 + 95948 x196 + 109479 x197 + 109887 x198
       + 94325 x199 + 102895 x200 + 90078 x201 + 105802 x202 + 103629 x203
       + 101165 x204 + 99280 x205 + 95286 x206 + 90328 x207 + 95523 x208
       + 103578 x209 + 107924 x210 + 106434 x211 + 106665 x212 + 103012 x213
       + 103362 x214 + 97853 x215 + 94560 x216 + 92967 x217 + 90309 x218
       + 90030 x219 + 93933 x220 + 105785 x221 + 109867 x222 + 98940 x223
       + 104913 x224 + 92904 x225 + 91015 x226 + 105034 x227 + 102518 x228
       + 92115 x229 + 95903 x230 + 98686 x231 + 98815 x232 + 92586 x233
       + 101389 x234 + 96489 x235 + 95674 x236 + 108867 x237 + 107655 x238
       + 99175 x239 + 95762 x240 + 104350 x241 + 104726 x242 + 93967 x243
       + 94728 x244 + 104516 x245 + 103400 x246 + 96889 x247 + 98513 x248
       + 90797 x249 + 48195 x250 + 208161 x251 + 187228 x252 + 212236 x253
       + 219582 x254 + 192122 x255 + 186418 x256 + 211226 x257 + 185604 x258
       + 203703 x259 + 202961 x260 + 205785 x261 + 186237 x262 + 181438 x263
       + 203825 x264 + 182673 x265 + 188701 x266 + 200498 x267 + 200433 x268
       + 204857 x269 + 197612 x270 + 219757 x271 + 210257 x272 + 198125 x273
       + 219295 x274 + 212347 x275 + 192468 x276 + 189713 x277 + 209252 x278
       + 183329 x279 + 189817 x280 + 191186 x281 + 214657 x282 + 208752 x283
       + 214284 x284 + 180323 x285 + 206014 x286 + 214803 x287 + 203133 x288
       + 193094 x289 + 198040 x290 + 193904 x291 + 204849 x292 + 186793 x293
       + 189623 x294 + 206526 x295 + 191058 x296 + 199237 x297 + 206131 x298
       + 203161 x299 + 208772 x300
Subject To
 c1:   - x4 + x17 + x21 + x22 + x23 - x25 - x26 + x31 + x33 - x43 + x47  = 0
 c2:   - x54 + x67 + x71 + x72 + x73 - x75 - x76 + x81 + x83 - x93 + x97  = 0
 c3:   - x104 + x117 + x121 + x122 + x123 - x125 - x126 + x131 + x133 - x143
       + x147  = 0
 c4:   - x154 + x167 + x171 + x172 + x173 - x175 - x176 + x181 + x183 - x193
       + x197  = 0
 c5:   - x204 + x217 + x221 + x222 + x223 - x225 - x226 + x231 + x233 - x243
       + x247  = -1
 c6:   x9 + x12 + x13 - x14 - x16 + x18 - x20 + x25 + x29 - x33  = 0
 c7:   x59 + x62 + x63 - x64 - x66 + x68 - x70 + x75 + x79 - x83  = 0
 c8:   x109 + x112 + x113 - x114 - x116 + x118 - x120 + x125 + x129 - x133  = 0
 c9:   x159 + x162 + x163 - x164 - x166 + x168 - x170 + x175 + x179 - x183  = 0
 c10:  x209 + x212 + x213 - x214 - x216 + x218 - x220 + x225 + x229 - x233  = 1
 c11:  - x6 + x7 - x13 - x15 + x16 + x19 + x26 - x31 - x34 - x37 - x42 - x44
       + x45  = 0
 c12:  - x56 + x57 - x63 - x65 + x66 + x69 + x76 - x81 - x84 - x87 - x92 - x94
       + x95  = -1
 c13:  - x106 + x107 - x113 - x115 + x116 + x119 + x126 - x131 - x134 - x137
       - x142 - x144 + x145  = 0
 c14:  - x156 + x157 - x163 - x165 + x166 + x169 + x176 - x181 - x184 - x187
       - x192 - x194 + x195  = 0
 c15:  - x206 + x207 - x213 - x215 + x216 + x219 + x226 - x231 - x234 - x237
       - x242 - x244 + x245  = 0
 c16:  - x10 - x27 - x30 + x34 + x35 - x38 + x39 + x40  = 0
 c17:  - x60 - x77 - x80 + x84 + x85 - x88 + x89 + x90  = 0
 c18:  - x110 - x127 - x130 + x134 + x135 - x138 + x139 + x140  = 0
 c19:  - x160 - x177 - x180 + x184 + x185 - x188 + x189 + x190  = 0
 c20:  - x210 - x227 - x230 + x234 + x235 - x238 + x239 + x240  = 0
 c21:  - x1 - x7 + x8 + x14 + x15 - x39 - x48 - x49  = 0
 c22:  - x51 - x57 + x58 + x64 + x65 - x89 - x98 - x99  = 0
 c23:  - x101 - x107 + x108 + x114 + x115 - x139 - x148 - x149  = -1
 c24:  - x151 - x157 + x158 + x164 + x165 - x189 - x198 - x199  = 0
 c25:  - x201 - x207 + x208 + x214 + x215 - x239 - x248 - x249  = 0
 c26:  x4 - x22 + x24 + x27 - x29 - x32 - x40 - x41 + x44 + x48  = 0
 c27:  x54 - x72 + x74 + x77 - x79 - x82 - x90 - x91 + x94 + x98  = 0
 c28:  x104 - x122 + x124 + x127 - x129 - x132 - x140 - x141 + x144 + x148  = 0
 c29:  x154 - x172 + x174 + x177 - x179 - x182 - x190 - x191 + x194 + x198  = 0
 c30:  x204 - x222 + x224 + x227 - x229 - x232 - x240 - x241 + x244 + x248  = 0
 c31:  x3 - x5 - x24 + x36 + x38 - x45 - x47 + x49 + x50  = 0
 c32:  x53 - x55 - x74 + x86 + x88 - x95 - x97 + x99 + x100  = 1
 c33:  x103 - x105 - x124 + x136 + x138 - x145 - x147 + x149 + x150  = 0
 c34:  x153 - x155 - x174 + x186 + x188 - x195 - x197 + x199 + x200  = 1
 c35:  x203 - x205 - x224 + x236 + x238 - x245 - x247 + x249 + x250  = 0
 c36:  x1 - x11 - x18 - x19 - x23 + x28 + x32 + x37 - x46 - x50  = 1
 c37:  x51 - x61 - x68 - x69 - x73 + x78 + x82 + x87 - x96 - x100  = 0
 c38:  x101 - x111 - x118 - x119 - x123 + x128 + x132 + x137 - x146 - x150  = 0
 c39:  x151 - x161 - x168 - x169 - x173 + x178 + x182 + x187 - x196 - x200  = 0
 c40:  x201 - x211 - x218 - x219 - x223 + x228 + x232 + x237 - x246 - x250  = 0
 c41:  x2 + x6 + x10 + x11 - x12 - x17 + x20 - x35 - x36 + x41 + x43  = 0
 c42:  x52 + x56 + x60 + x61 - x62 - x67 + x70 - x85 - x86 + x91 + x93  = 0
 c43:  x102 + x106 + x110 + x111 - x112 - x117 + x120 - x135 - x136 + x141
       + x143  = 1
 c44:  x152 + x156 + x160 + x161 - x162 - x167 + x170 - x185 - x186 + x191
       + x193  = -1
 c45:  x202 + x206 + x210 + x211 - x212 - x217 + x220 - x235 - x236 + x241
       + x243  = 0
 c46:  - x2 - x3 + x5 - x8 - x9 - x21 - x28 + x30 + x42 + x46  = -1
 c47:  - x52 - x53 + x55 - x58 - x59 - x71 - x78 + x80 + x92 + x96  = 0
 c48:  - x102 - x103 + x105 - x108 - x109 - x121 - x128 + x130 + x142 + x146
        = 0
 c49:  - x152 - x153 + x155 - x158 - x159 - x171 - x178 + x180 + x192 + x196
        = 0
 c50:  - x202 - x203 + x205 - x208 - x209 - x221 - x228 + x230 + x242 + x246
        = 0
 c51:  4 x1 + 4 x51 + 4 x101 + 4 x151 + 4 x201 - 11 x251 <= 0
 c52:  4 x2 + 4 x52 + 4 x102 + 4 x152 + 4 x202 - 9 x252 <= 0
 c53:  4 x3 + 4 x53 + 4 x103 + 4 x153 + 4 x203 - 10 x253 <= 0
 c54:  4 x4 + 4 x54 + 4 x104 + 4 x154 + 4 x204 - 11 x254 <= 0
 c55:  4 x5 + 4 x55 + 4 x105 + 4 x155 + 4 x205 - 9 x255 <= 0
 c56:  4 x6 + 4 x56 + 4 x106 + 4 x156 + 4 x206 - 10 x256 <= 0
 c57:  4 x7 + 4 x57 + 4 x107 + 4 x157 + 4 x207 - 10 x257 <= 0
 c58:  4 x8 + 4 x58 + 4 x108 + 4 x158 + 4 x208 - 11 x258 <= 0
 c59:  4 x9 + 4 x59 + 4 x109 + 4 x159 + 4 x209 - 10 x259 <= 0
 c60:  4 x10 + 4 x60 + 4 x110 + 4 x160 + 4 x210 - 10 x260 <= 0
 c61:  4 x11 + 4 x61 + 4 x111 + 4 x161 + 4 x211 - 9 x261 <= 0
 c62:  4 x12 + 4 x62 + 4 x112 + 4 x162 + 4 x212 - 10 x262 <= 0
 c63:  4 x13 + 4 x63 + 4 x113 + 4 x163 + 4 x213 - 9 x263 <= 0
 c64:  4 x14 + 4 x64 + 4 x114 + 4 x164 + 4 x214 - 10 x264 <= 0
 c65:  4 x15 + 4 x65 + 4 x115 + 4 x165 + 4 x215 - 10 x265 <= 0
 c66:  4 x16 + 4 x66 + 4 x116 + 4 x166 + 4 x216 - 9 x266 <= 0
 c67:  4 x17 + 4 x67 + 4 x117 + 4 x167 + 4 x217 - 11 x267 <= 0
 c68:  4 x18 + 4 x68 + 4 x118 + 4 x168 + 4 x218 - 10 x268 <= 0
 c69:  4 x19 + 4 x69 + 4 x119 + 4 x169 + 4 x219 - 9 x269 <= 0
 c70:  4 x20 + 4 x70 + 4 x120 + 4 x170 + 4 x220 - 10 x270 <= 0
 c71:  4 x21 + 4 x71 + 4 x121 + 4 x171 + 4 x221 - 9 x271 <= 0
 c72:  4 x22 + 4 x72 + 4 x122 + 4 x172 + 4 x222 - 10 x272 <= 0
 c73:  4 x23 + 4 x73 + 4 x123 + 4 x173 + 4 x223 - 11 x273 <= 0
 c74:  4 x24 + 4 x74 + 4 x124 + 4 x174 + 4 x224 - 10 x274 <= 0
 c75:  4 x25 + 4 x75 + 4 x125 + 4 x175 + 4 x225 - 10 x275 <= 0
 c76:  4 x26 + 4 x76 + 4 x126 + 4 x176 + 4 x226 - 10 x276 <= 0
 c77:  4 x27 + 4 x77 + 4 x127 + 4 x177 + 4 x227 - 11 x277 <= 0
 c78:  4 x28 + 4 x78 + 4 x128 + 4 x178 + 4 x228 - 10 x278 <= 0
 c79:  4 x29 + 4 x79 + 4 x129 + 4 x179 + 4 x229 - 10 x279 <= 0
 c80:  4 x30 + 4 x80 + 4 x130 + 4 x180 + 4 x230 - 9 x280 <= 0
 c81:  4 x31 + 4 x81 + 4 x131 + 4 x181 + 4 x231 - 10 x281 <= 0
 c82:  4 x32 + 4 x82 + 4 x132 + 4 x182 + 4 x232 - 10 x282 <= 0
 c83:  4 x33 + 4 x83 + 4 x133 + 4 x183 + 4 x233 - 9 x283 <= 0
 c84:  4 x34 + 4 x84 + 4 x134 + 4 x184 + 4 x234 - 9 x284 <= 0
 c85:  4 x35 + 4 x85 + 4 x135 + 4 x185 + 4 x235 - 10 x285 <= 0
 c86:  4 x36 + 4 x86 + 4 x136 + 4 x186 + 4 x236 - 10 x286 <= 0
 c87:  4 x37 + 4 x87 + 4 x137 + 4 x187 + 4 x237 - 10 x287 <= 0
 c88:  4 x38 + 4 x88 + 4 x138 + 4 x188 + 4 x238 - 10 x288 <= 0
 c89:  4 x39 + 4 x89 + 4 x139 + 4 x189 + 4 x239 - 10 x289 <= 0
 c90:  4 x40 + 4 x90 + 4 x140 + 4 x190 + 4 x240 - 10 x290 <= 0
 c91:  4 x41 + 4 x91 + 4 x141 + 4 x191 + 4 x241 - 11 x291 <= 0
 c92:  4 x42 + 4 x92 + 4 x142 + 4 x192 + 4 x242 - 9 x292 <= 0
 c93:  4 x43 + 4 x93 + 4 x143 + 4 x193 + 4 x243 - 10 x293 <= 0
 c94:  4 x44 + 4 x94 + 4 x144 + 4 x194 + 4 x244 - 10 x294 <= 0
 c95:  4 x45 + 4 x95 + 4 x145 + 4 x195 + 4 x245 - 11 x295 <= 0
 c96:  4 x46 + 4 x96 + 4 x146 + 4 x196 + 4 x246 - 10 x296 <= 0
 c97:  4 x47 + 4 x97 + 4 x147 + 4 x197 + 4 x247 - 11 x297 <= 0
 c98:  4 x48 + 4 x98 + 4 x148 + 4 x198 + 4 x248 - 9 x298 <= 0
 c99:  4 x49 + 4 x99 + 4 x149 + 4 x199 + 4 x249 - 9 x299 <= 0
 c100: 4 x50 + 4 x100 + 4 x150 + 4 x200 + 4 x250 - 14 x300 <= 0
Bounds
 0 <= x1 <= 1
 0 <= x2 <= 1
 0 <= x3 <= 1
 0 <= x4 <= 1
 0 <= x5 <= 1
 0 <= x6 <= 1
 0 <= x7 <= 1
 0 <= x8 <= 1
 0 <= x9 <= 1
 0 <= x10 <= 1
 0 <= x11 <= 1
 0 <= x12 <= 1
 0 <= x13 <= 1
 0 <= x14 <= 1
 0 <= x15 <= 1
 0 <= x16 <= 1
 0 <= x17 <= 1
 0 <= x18 <= 1
 0 <= x19 <= 1
 0 <= x20 <= 1
 0 <= x21 <= 1
 0 <= x22 <= 1
 0 <= x23 <= 1
 0 <= x24 <= 1
 0 <= x25 <= 1
 0 <= x26 <= 1
 0 <= x27 <= 1
 0 <= x28 <= 1
 0 <= x29 <= 1
 0 <= x30 <= 1
 0 <= x31 <= 1
 0 <= x32 <= 1
 0 <= x33 <= 1
 0 <= x34 <= 1
 0 <= x35 <= 1
 0 <= x36 <= 1
 0 <= x37 <= 1
 0 <= x38 <= 1
 0 <= x39 <= 1
 0 <= x40 <= 1
 0 <= x41 <= 1
 0 <= x42 <= 1
 0 <= x43 <= 1
 0 <= x44 <= 1
 0 <= x45 <= 1
 0 <= x46 <= 1
 0 <= x47 <= 1
 0 <= x48 <= 1
 0 <= x49 <= 1
 0 <= x50 <= 1
 0 <= x51 <= 1
 0 <= x52 <= 1
 0 <= x53 <= 1
 0 <= x54 <= 1
 0 <= x55 <= 1
 0 <= x56 <= 1
 0 <= x57 <= 1
 0 <= x58 <= 1
 0 <= x59 <= 1
 0 <= x60 <= 1
 0 <= x61 <= 1
 0 <= x62 <= 1
 0 <= x63 <= 1
 0 <= x64 <= 1
 0 <= x65 <= 1
 0 <= x66 <= 1
 0 <= x67 <= 1
 0 <= x68 <= 1
 0 <= x69 <= 1
 0 <= x70 <= 1
 0 <= x71 <= 1
 0 <= x72 <= 1
 0 <= x73 <= 1
 0 <= x74 <= 1
 0 <= x75 <= 1
 0 <= x76 <= 1
 0 <= x77 <= 1
 0 <= x78 <= 1
 0 <= x79 <= 1
 0 <= x80 <= 1
 0 <= x81 <= 1
 0 <= x82 <= 1
 0 <= x83 <= 1
 0 <= x84 <= 1
 0 <= x85 <= 1
 0 <= x86 <= 1
 0 <= x87 <= 1
 0 <= x88 <= 1
 0 <= x89 <= 1
 0 <= x90 <= 1
 0 <= x91 <= 1
 0 <= x92 <= 1
 0 <= x93 <= 1
 0 <= x94 <= 1
 0 <= x95 <= 1
 0 <= x96 <= 1
 0 <= x97 <= 1
 0 <= x98 <= 1
 0 <= x99 <= 1
 0 <= x100 <= 1
 0 <= x101 <= 1
 0 <= x102 <= 1
 0 <= x103 <= 1
 0 <= x104 <= 1
 0 <= x105 <= 1
 0 <= x106 <= 1
 0 <= x107 <= 1
 0 <= x108 <= 1
 0 <= x109 <= 1
 0 <= x110 <= 1
 0 <= x111 <= 1
 0 <= x112 <= 1
 0 <= x113 <= 1
 0 <= x114 <= 1
 0 <= x115 <= 1
 0 <= x116 <= 1
 0 <= x117 <= 1
 0 <= x118 <= 1
 0 <= x119 <= 1
 0 <= x120 <= 1
 0 <= x121 <= 1
 0 <= x122 <= 1
 0 <= x123 <= 1
 0 <= x124 <= 1
 0 <= x125 <= 1
 0 <= x126 <= 1
 0 <= x127 <= 1
 0 <= x128 <= 1
 0 <= x129 <= 1
 0 <= x130 <= 1
 0 <= x131 <= 1
 0 <= x132 <= 1
 0 <= x133 <= 1
 0 <= x134 <= 1
 0 <= x135 <= 1
 0 <= x136 <= 1
 0 <= x137 <= 1
 0 <= x138 <= 1
 0 <= x139 <= 1
 0 <= x140 <= 1
 0 <= x141 <= 1
 0 <= x142 <= 1
 0 <= x143 <= 1
 0 <= x144 <= 1
 0 <= x145 <= 1
 0 <= x146 <= 1
 0 <= x147 <= 1
 0 <= x148 <= 1
 0 <= x149 <= 1
 0 <= x150 <= 1
 0 <= x151 <= 1
 0 <= x152 <= 1
 0 <= x153 <= 1
 0 <= x154 <= 1
 0 <= x155 <= 1
 0 <= x156 <= 1
 0 <= x157 <= 1
 0 <= x158 <= 1
 0 <= x159 <= 1
 0 <= x160 <= 1
 0 <= x161 <= 1
 0 <= x162 <= 1
 0 <= x163 <= 1
 0 <= x164 <= 1
 0 <= x165 <= 1
 0 <= x166 <= 1
 0 <= x167 <= 1
 0 <= x168 <= 1
 0 <= x169 <= 1
 0 <= x170 <= 1
 0 <= x171 <= 1
 0 <= x172 <= 1
 0 <= x173 <= 1
 0 <= x174 <= 1
 0 <= x175 <= 1
 0 <= x176 <= 1
 0 <= x177 <= 1
 0 <= x178 <= 1
 0 <= x179 <= 1
 0 <= x180 <= 1
 0 <= x181 <= 1
 0 <= x182 <= 1
 0 <= x183 <= 1
 0 <= x184 <= 1
 0 <= x185 <= 1
 0 <= x186 <= 1
 0 <= x187 <= 1
 0 <= x188 <= 1
 0 <= x189 <= 1
 0 <= x190 <= 1
 0 <= x191 <= 1
 0 <= x192 <= 1
 0 <= x193 <= 1
 0 <= x194 <= 1
 0 <= x195 <= 1
 0 <= x196 <= 1
 0 <= x197 <= 1
 0 <= x198 <= 1
 0 <= x199 <= 1
 0 <= x200 <= 1
 0 <= x201 <= 1
 0 <= x202 <= 1
 0 <= x203 <= 1
 0 <= x204 <= 1
 0 <= x205 <= 1
 0 <= x206 <= 1
 0 <= x207 <= 1
 0 <= x208 <= 1
 0 <= x209 <= 1
 0 <= x210 <= 1
 0 <= x211 <= 1
 0 <= x212 <= 1
 0 <= x213 <= 1
 0 <= x214 <= 1
 0 <= x215 <= 1
 0 <= x216 <= 1
 0 <= x217 <= 1
 0 <= x218 <= 1
 0 <= x219 <= 1
 0 <= x220 <= 1
 0 <= x221 <= 1
 0 <= x222 <= 1
 0 <= x223 <= 1
 0 <= x224 <= 1
 0 <= x225 <= 1
 0 <= x226 <= 1
 0 <= x227 <= 1
 0 <= x228 <= 1
 0 <= x229 <= 1
 0 <= x230 <= 1
 0 <= x231 <= 1
 0 <= x232 <= 1
 0 <= x233 <= 1
 0 <= x234 <= 1
 0 <= x235 <= 1
 0 <= x236 <= 1
 0 <= x237 <= 1
 0 <= x238 <= 1
 0 <= x239 <= 1
 0 <= x240 <= 1
 0 <= x241 <= 1
 0 <= x242 <= 1
 0 <= x243 <= 1
 0 <= x244 <= 1
 0 <= x245 <= 1
 0 <= x246 <= 1
 0 <= x247 <= 1
 0 <= x248 <= 1
 0 <= x249 <= 1
 0 <= x250 <= 1
 0 <= x251 <= 1
 0 <= x252 <= 1
 0 <= x253 <= 1
 0 <= x254 <= 1
 0 <= x255 <= 1
 0 <= x256 <= 1
 0 <= x257 <= 1
 0 <= x258 <= 1
 0 <= x259 <= 1
 0 <= x260 <= 1
 0 <= x261 <= 1
 0 <= x262 <= 1
 0 <= x263 <= 1
 0 <= x264 <= 1
 0 <= x265 <= 1
 0 <= x266 <= 1
 0 <= x267 <= 1
 0 <= x268 <= 1
 0 <= x269 <= 1
 0 <= x270 <= 1
 0 <= x271 <= 1
 0 <= x272 <= 1
 0 <= x273 <= 1
 0 <= x274 <= 1
 0 <= x275 <= 1
 0 <= x276 <= 1
 0 <= x277 <= 1
 0 <= x278 <= 1
 0 <= x279 <= 1
 0 <= x280 <= 1
 0 <= x281 <= 1
 0 <= x282 <= 1
 0 <= x283 <= 1
 0 <= x284 <= 1
 0 <= x285 <= 1
 0 <= x286 <= 1
 0 <= x287 <= 1
 0 <= x288 <= 1
 0 <= x289 <= 1
 0 <= x290 <= 1
 0 <= x291 <= 1
 0 <= x292 <= 1
 0 <= x293 <= 1
 0 <= x294 <= 1
 0 <= x295 <= 1
 0 <= x296 <= 1
 0 <= x297 <= 1
 0 <= x298 <= 1
 0 <= x299 <= 1
 0 <= x300 <= 1
Binaries
 x251  x252  x253  x254  x255  x256  x257  x258  x259  x260  x261  x262  x263 
 x264  x265  x266  x267  x268  x269  x270  x271  x272  x273  x274  x275  x276 
 x277  x278  x279  x280  x281  x282  x283  x284  x285  x286  x287  x288  x289 
 x290  x291  x292  x293  x294  x295  x296  x297  x298  x299  x300 
End
